53 55
44 67
51 98
62 5
96 70
78 60
45 57
17 40
99 90
65 29
95 52
30 82
68 55
7 69
96 59
6 58
78 44
16 75
42 14
81 12
25 27
44 84
36 71
76 54
83 65
91 57
2 0
79 35
30 19
57 76
29 70
25 70
43 61
26 91
41 60
22 85
93 47
16 56
28 10
32 85
55 97
80 77
65 95
48 99
50 49
17 91
54 26
52 32
70 12
77 25
42 58
60 74
5 44
16 41
36 56
66 93
83 84
72 33
20 35
57 26
47 28
77 98
77 77
30 7
17 55
80 35
18 35
70 67
17 54
65 6
27 28
37 98
33 15
85 6
28 87
21 70
3 9
51 34
89 71
84 67
86 81
14 10
67 73
86 12
90 68
77 93
21 44
85 83
26 83
74 59
45 90
89 27
70 34
92 22
4 85
80 19
27 97
6 45
78 11
14 84
